<number of tasks>
89

<cycle time>
97

<task times>
1 28
2 17
3 7
4 10
5 12
6 16
7 13
8 8
9 13
10 24
11 16
12 24
13 12
14 20
15 22
16 22
17 22
18 47
19 6
20 12
21 6
22 22
23 7
24 14
25 68
26 15
27 8
28 74
29 32
30 11
31 18
32 15
33 42
34 27
35 38
36 38
37 26
38 35
39 31
40 8
41 14
42 8
43 8
44 8
45 17
46 7
47 19
48 12
49 24
50 26
51 22
52 14
53 27
54 60
55 4
56 2
57 1
58 9
59 5
60 6
61 7
62 12
63 2
64 11
65 14
66 6
67 21
68 14
69 1
70 6
71 21
72 11
73 14
74 28
75 12
76 11
77 30
78 22
79 14
80 31
81 18
82 16
83 7
84 38
85 8
86 31
87 29
88 12
89 18

<precedence relations>
1,2
2,3
3,4
4,5
4,6
4,7
4,8
4,9
5,10
6,11
7,12
8,18
9,18
10,14
11,12
12,13
13,14
14,15
14,16
15,17
16,54
17,18
18,19
18,20
19,22
20,21
20,28
21,54
22,23
23,24
24,25
25,26
25,27
25,29
26,37
27,33
28,29
29,31
30,54
31,32
32,33
33,34
34,35
35,36
35,37
36,38
37,38
38,39
39,40
39,41
39,42
39,43
40,44
41,53
42,53
43,45
44,52
45,46
46,47
47,48
47,49
49,50
50,51
51,52
52,53
53,68
53,69
53,70
53,71
54,55
55,56
56,57
57,58
57,59
57,60
57,61
57,62
57,63
57,64
57,65
57,66
58,67
59,67
60,67
61,67
62,67
63,67
64,67
65,67
66,67
67,73
68,72
69,72
70,72
71,73
72,78
72,80
73,74
74,75
74,76
75,77
76,81
77,78
78,79
79,81
80,81
81,82
81,84
81,85
82,83
83,86
84,86
85,86
86,87
87,88
87,89

<setup times forward>
4,5:3
4,7:3
4,9:2
5,6:3
5,8:3
5,9:5
5,13:5
5,30:3
6,5:3
6,7:3
6,9:2
6,10:3
6,11:3
7,6:3
7,8:3
7,9:5
7,30:3
8,5:3
8,7:3
8,9:2
8,10:3
8,11:3
8,12:3
8,13:2
8,14:2
8,15:2
8,17:2
8,18:1
9,5:5
9,6:2
9,7:5
9,8:2
9,10:5
9,11:5
9,12:5
9,16:2
9,18:3
9,30:2
10,6:3
10,8:3
10,9:5
10,13:5
10,14:5
10,30:3
11,8:3
11,9:5
11,30:3
12,8:3
12,9:5
12,13:5
12,30:3
13,5:5
13,8:2
13,10:5
13,30:2
14,8:2
14,16:2
14,30:2
15,8:2
15,16:2
15,30:2
16,9:2
16,15:2
16,17:2
16,18:1
16,19:1
16,20:1
16,21:1
16,22:1
16,23:1
16,24:1
16,25:1
16,26:2
16,27:1
16,28:2
16,33:3
16,34:3
16,35:2
16,36:2
16,37:4
16,38:4
16,39:4
16,40:1
16,41:1
16,42:1
16,43:1
16,44:1
16,45:1
16,46:1
16,47:1
16,48:4
16,49:1
16,50:1
16,51:1
16,52:2
16,53:2
16,54:2
16,68:2
16,69:5
16,70:5
16,71:2
16,72:5
16,80:5
17,8:2
17,16:2
17,18:3
17,30:2
18,16:1
18,30:1
19,16:1
19,28:3
19,30:1
19,54:1
19,55:1
19,56:1
19,57:1
19,58:3
19,59:5
19,61:2
19,62:1
19,63:1
19,64:3
19,65:1
19,66:2
19,67:1
20,16:1
20,26:3
20,28:3
20,30:1
21,16:1
21,26:3
21,28:3
21,29:1
21,30:1
21,31:1
21,32:1
21,33:4
21,34:4
21,35:3
21,36:3
21,37:5
21,38:5
21,39:5
21,40:2
21,41:2
21,42:2
21,43:2
21,44:2
21,45:2
21,46:2
21,48:5
21,52:1
21,53:1
21,54:1
21,68:1
21,69:6
21,70:6
21,71:1
21,72:6
21,80:6
22,16:1
22,28:3
22,30:1
22,54:1
22,55:1
22,56:1
22,57:1
22,58:3
22,59:5
22,61:2
22,62:1
22,63:1
22,64:3
22,65:1
22,66:2
22,67:1
23,16:1
23,28:3
23,30:1
23,54:1
23,55:1
23,56:1
23,57:1
23,58:3
23,59:5
23,61:2
23,62:1
23,63:1
23,64:3
23,65:1
23,66:2
23,67:1
24,16:1
24,28:3
24,30:1
24,54:1
24,55:1
24,56:1
24,57:1
24,58:3
24,59:5
24,61:2
24,62:1
24,63:1
24,64:3
24,65:1
24,66:2
24,67:1
25,16:1
25,26:3
25,28:3
25,29:1
25,30:1
25,54:1
25,55:1
25,56:1
25,57:1
25,58:3
25,59:5
25,61:2
25,62:1
25,63:1
25,64:3
25,65:1
25,66:2
25,67:1
26,16:2
26,20:3
26,21:3
26,27:3
26,29:2
26,30:2
26,31:2
26,32:2
26,33:1
26,34:1
26,37:2
26,54:4
26,55:4
26,56:4
26,57:4
26,59:2
26,60:3
26,61:1
26,62:4
26,63:4
26,65:4
26,66:1
26,67:4
27,16:1
27,26:3
27,28:3
27,29:1
27,30:1
27,31:1
27,32:1
27,33:4
27,54:1
27,55:1
27,56:1
27,57:1
27,58:3
27,59:5
27,61:2
27,62:1
27,63:1
27,64:3
27,65:1
27,66:2
27,67:1
28,16:2
28,19:3
28,21:3
28,22:3
28,23:3
28,24:3
28,25:3
28,27:3
28,29:2
28,30:2
28,54:4
28,55:4
28,56:4
28,57:4
28,59:2
28,60:3
28,61:1
28,62:4
28,63:4
28,65:4
28,66:1
28,67:4
29,21:1
29,26:2
29,27:1
29,54:2
29,55:2
29,56:2
29,57:2
29,58:2
29,59:4
29,60:1
29,61:1
29,62:2
29,63:2
29,64:2
29,65:2
29,66:1
29,67:2
30,5:3
30,7:3
30,9:2
30,10:3
30,11:3
30,12:3
30,13:2
30,14:2
30,15:2
30,17:2
30,18:1
30,19:1
30,20:1
30,21:1
30,22:1
30,23:1
30,24:1
30,25:1
30,26:2
30,27:1
30,28:2
30,33:3
30,34:3
30,35:2
30,36:2
30,37:4
30,38:4
30,39:4
30,40:1
30,41:1
30,42:1
30,43:1
30,44:1
30,45:1
30,46:1
30,47:1
30,48:4
30,49:1
30,50:1
30,51:1
30,52:2
30,53:2
30,54:2
30,68:2
30,69:5
30,70:5
30,71:2
30,72:5
30,80:5
31,21:1
31,26:2
31,27:1
31,54:2
31,55:2
31,56:2
31,57:2
31,58:2
31,59:4
31,60:1
31,61:1
31,62:2
31,63:2
31,64:2
31,65:2
31,66:1
31,67:2
32,21:1
32,26:2
32,27:1
32,33:3
32,54:2
32,55:2
32,56:2
32,57:2
32,58:2
32,59:4
32,60:1
32,61:1
32,62:2
32,63:2
32,64:2
32,65:2
32,66:1
32,67:2
33,16:3
33,21:4
33,26:1
33,30:3
33,54:5
33,55:5
33,56:5
33,57:5
33,58:1
33,59:1
33,60:4
33,61:2
33,62:5
33,63:5
33,64:1
33,65:5
33,66:2
33,67:5
34,16:3
34,21:4
34,26:1
34,30:3
34,35:1
34,54:5
34,55:5
34,56:5
34,57:5
34,58:1
34,59:1
34,60:4
34,61:2
34,62:5
34,63:5
34,64:1
34,65:5
34,66:2
34,67:5
35,16:2
35,21:3
35,30:2
35,37:2
35,54:4
35,55:4
35,56:4
35,57:4
35,59:2
35,60:3
35,61:1
35,62:4
35,63:4
35,65:4
35,66:1
35,67:4
36,16:2
36,21:3
36,30:2
36,37:2
36,38:2
36,54:4
36,55:4
36,56:4
36,57:4
36,59:2
36,60:3
36,61:1
36,62:4
36,63:4
36,65:4
36,66:1
36,67:4
37,16:4
37,21:5
37,30:4
37,36:2
37,54:6
37,55:6
37,56:6
37,57:6
37,58:2
37,60:5
37,61:3
37,62:6
37,63:6
37,64:2
37,65:6
37,66:3
37,67:6
38,16:4
38,21:5
38,30:4
38,54:6
38,55:6
38,56:6
38,57:6
38,58:2
38,60:5
38,61:3
38,62:6
38,63:6
38,64:2
38,65:6
38,66:3
38,67:6
39,16:4
39,21:5
39,30:4
39,40:3
39,41:3
39,42:3
39,43:3
39,54:6
39,55:6
39,56:6
39,57:6
39,58:2
39,60:5
39,61:3
39,62:6
39,63:6
39,64:2
39,65:6
39,66:3
39,67:6
40,16:1
40,21:2
40,30:1
40,47:2
40,48:3
40,49:2
40,50:2
40,51:2
40,54:3
40,55:3
40,56:3
40,57:3
40,58:1
40,59:3
40,60:2
40,62:3
40,63:3
40,64:1
40,65:3
40,67:3
41,16:1
41,21:2
41,30:1
41,47:2
41,48:3
41,49:2
41,50:2
41,51:2
41,52:3
41,53:3
41,54:3
41,55:3
41,56:3
41,57:3
41,58:1
41,59:3
41,60:2
41,62:3
41,63:3
41,64:1
41,65:3
41,67:3
42,16:1
42,21:2
42,30:1
42,47:2
42,48:3
42,49:2
42,50:2
42,51:2
42,52:3
42,53:3
42,54:3
42,55:3
42,56:3
42,57:3
42,58:1
42,59:3
42,60:2
42,62:3
42,63:3
42,64:1
42,65:3
42,67:3
43,16:1
43,21:2
43,30:1
43,54:3
43,55:3
43,56:3
43,57:3
43,58:1
43,59:3
43,60:2
43,62:3
43,63:3
43,64:1
43,65:3
43,67:3
44,16:1
44,21:2
44,30:1
44,47:2
44,48:3
44,49:2
44,50:2
44,51:2
44,52:3
44,54:3
44,55:3
44,56:3
44,57:3
44,58:1
44,59:3
44,60:2
44,62:3
44,63:3
44,64:1
44,65:3
44,67:3
45,16:1
45,21:2
45,30:1
45,54:3
45,55:3
45,56:3
45,57:3
45,58:1
45,59:3
45,60:2
45,62:3
45,63:3
45,64:1
45,65:3
45,67:3
46,16:1
46,21:2
46,30:1
46,47:2
46,54:3
46,55:3
46,56:3
46,57:3
46,58:1
46,59:3
46,60:2
46,62:3
46,63:3
46,64:1
46,65:3
46,67:3
47,16:1
47,30:1
47,40:2
47,41:2
47,42:2
47,44:2
47,48:5
47,54:1
47,55:1
47,56:1
47,57:1
47,58:3
47,59:5
47,61:2
47,62:1
47,63:1
47,64:3
47,65:1
47,66:2
47,67:1
48,16:4
48,21:5
48,30:4
48,40:3
48,41:3
48,42:3
48,44:3
48,49:5
48,50:5
48,51:5
48,52:6
48,53:6
48,54:6
48,55:6
48,56:6
48,57:6
48,58:2
48,60:5
48,61:3
48,62:6
48,63:6
48,64:2
48,65:6
48,66:3
48,67:6
48,68:6
48,69:1
48,70:1
48,71:6
48,72:1
48,73:1
48,74:1
48,79:7
48,80:1
48,81:7
48,82:7
48,83:3
48,84:7
48,85:7
48,86:3
48,87:3
48,88:3
48,89:3
49,16:1
49,30:1
49,40:2
49,41:2
49,42:2
49,44:2
49,48:5
49,54:1
49,55:1
49,56:1
49,57:1
49,58:3
49,59:5
49,61:2
49,62:1
49,63:1
49,64:3
49,65:1
49,66:2
49,67:1
50,16:1
50,30:1
50,40:2
50,41:2
50,42:2
50,44:2
50,48:5
50,54:1
50,55:1
50,56:1
50,57:1
50,58:3
50,59:5
50,61:2
50,62:1
50,63:1
50,64:3
50,65:1
50,66:2
50,67:1
51,16:1
51,30:1
51,40:2
51,41:2
51,42:2
51,44:2
51,48:5
51,52:1
51,54:1
51,55:1
51,56:1
51,57:1
51,58:3
51,59:5
51,61:2
51,62:1
51,63:1
51,64:3
51,65:1
51,66:2
51,67:1
52,16:2
52,21:1
52,30:2
52,41:3
52,42:3
52,48:6
52,58:4
52,59:6
52,60:1
52,61:3
52,64:4
52,66:3
53,16:2
53,21:1
53,30:2
53,48:6
53,58:4
53,59:6
53,60:1
53,61:3
53,64:4
53,66:3
53,69:7
53,70:7
54,19:1
54,22:1
54,23:1
54,24:1
54,25:1
54,26:4
54,27:1
54,28:4
54,29:2
54,31:2
54,32:2
54,33:5
54,34:5
54,35:4
54,36:4
54,37:6
54,38:6
54,39:6
54,40:3
54,41:3
54,42:3
54,43:3
54,44:3
54,45:3
54,46:3
54,47:1
54,48:6
54,49:1
54,50:1
54,51:1
54,69:7
54,70:7
54,72:7
54,80:7
55,19:1
55,22:1
55,23:1
55,24:1
55,25:1
55,26:4
55,27:1
55,28:4
55,29:2
55,31:2
55,32:2
55,33:5
55,34:5
55,35:4
55,36:4
55,37:6
55,38:6
55,39:6
55,40:3
55,41:3
55,42:3
55,43:3
55,44:3
55,45:3
55,46:3
55,47:1
55,48:6
55,49:1
55,50:1
55,51:1
55,69:7
55,70:7
55,72:7
55,80:7
56,19:1
56,22:1
56,23:1
56,24:1
56,25:1
56,26:4
56,27:1
56,28:4
56,29:2
56,31:2
56,32:2
56,33:5
56,34:5
56,35:4
56,36:4
56,37:6
56,38:6
56,39:6
56,40:3
56,41:3
56,42:3
56,43:3
56,44:3
56,45:3
56,46:3
56,47:1
56,48:6
56,49:1
56,50:1
56,51:1
56,69:7
56,70:7
56,72:7
56,80:7
57,19:1
57,22:1
57,23:1
57,24:1
57,25:1
57,26:4
57,27:1
57,28:4
57,29:2
57,31:2
57,32:2
57,33:5
57,34:5
57,35:4
57,36:4
57,37:6
57,38:6
57,39:6
57,40:3
57,41:3
57,42:3
57,43:3
57,44:3
57,45:3
57,46:3
57,47:1
57,48:6
57,49:1
57,50:1
57,51:1
57,58:4
57,59:6
57,60:1
57,61:3
57,64:4
57,66:3
57,69:7
57,70:7
57,72:7
57,80:7
58,19:3
58,22:3
58,23:3
58,24:3
58,25:3
58,27:3
58,29:2
58,31:2
58,32:2
58,33:1
58,34:1
58,37:2
58,38:2
58,39:2
58,40:1
58,41:1
58,42:1
58,43:1
58,44:1
58,45:1
58,46:1
58,47:3
58,48:2
58,49:3
58,50:3
58,51:3
58,52:4
58,53:4
58,59:2
58,60:3
58,61:1
58,62:4
58,63:4
58,65:4
58,66:1
58,67:4
58,68:4
58,69:3
58,70:3
58,71:4
58,72:3
58,80:3
59,19:5
59,22:5
59,23:5
59,24:5
59,25:5
59,26:2
59,27:5
59,28:2
59,29:4
59,31:4
59,32:4
59,33:1
59,34:1
59,35:2
59,36:2
59,40:3
59,41:3
59,42:3
59,43:3
59,44:3
59,45:3
59,46:3
59,47:5
59,49:5
59,50:5
59,51:5
59,52:6
59,53:6
59,58:2
59,60:5
59,61:3
59,62:6
59,63:6
59,64:2
59,65:6
59,66:3
59,67:6
59,68:6
59,69:1
59,70:1
59,71:6
59,72:1
59,80:1
60,26:3
60,28:3
60,29:1
60,31:1
60,32:1
60,33:4
60,34:4
60,35:3
60,36:3
60,37:5
60,38:5
60,39:5
60,40:2
60,41:2
60,42:2
60,43:2
60,44:2
60,45:2
60,46:2
60,48:5
60,52:1
60,53:1
60,58:3
60,59:5
60,61:2
60,62:1
60,63:1
60,64:3
60,65:1
60,66:2
60,67:1
60,68:1
60,69:6
60,70:6
60,71:1
60,72:6
60,80:6
61,19:2
61,22:2
61,23:2
61,24:2
61,25:2
61,26:1
61,27:2
61,28:1
61,29:1
61,31:1
61,32:1
61,33:2
61,34:2
61,35:1
61,36:1
61,37:3
61,38:3
61,39:3
61,47:2
61,48:3
61,49:2
61,50:2
61,51:2
61,52:3
61,53:3
61,58:1
61,59:3
61,60:2
61,62:3
61,63:3
61,64:1
61,65:3
61,67:3
61,68:3
61,69:4
61,70:4
61,71:3
61,72:4
61,80:4
62,19:1
62,22:1
62,23:1
62,24:1
62,25:1
62,26:4
62,27:1
62,28:4
62,29:2
62,31:2
62,32:2
62,33:5
62,34:5
62,35:4
62,36:4
62,37:6
62,38:6
62,39:6
62,40:3
62,41:3
62,42:3
62,43:3
62,44:3
62,45:3
62,46:3
62,47:1
62,48:6
62,49:1
62,50:1
62,51:1
62,58:4
62,59:6
62,60:1
62,61:3
62,64:4
62,66:3
62,69:7
62,70:7
62,72:7
62,80:7
63,19:1
63,22:1
63,23:1
63,24:1
63,25:1
63,26:4
63,27:1
63,28:4
63,29:2
63,31:2
63,32:2
63,33:5
63,34:5
63,35:4
63,36:4
63,37:6
63,38:6
63,39:6
63,40:3
63,41:3
63,42:3
63,43:3
63,44:3
63,45:3
63,46:3
63,47:1
63,48:6
63,49:1
63,50:1
63,51:1
63,58:4
63,59:6
63,60:1
63,61:3
63,64:4
63,66:3
63,69:7
63,70:7
63,72:7
63,80:7
64,19:3
64,22:3
64,23:3
64,24:3
64,25:3
64,27:3
64,29:2
64,31:2
64,32:2
64,33:1
64,34:1
64,37:2
64,38:2
64,39:2
64,40:1
64,41:1
64,42:1
64,43:1
64,44:1
64,45:1
64,46:1
64,47:3
64,48:2
64,49:3
64,50:3
64,51:3
64,52:4
64,53:4
64,59:2
64,60:3
64,61:1
64,62:4
64,63:4
64,65:4
64,66:1
64,67:4
64,68:4
64,69:3
64,70:3
64,71:4
64,72:3
64,80:3
65,19:1
65,22:1
65,23:1
65,24:1
65,25:1
65,26:4
65,27:1
65,28:4
65,29:2
65,31:2
65,32:2
65,33:5
65,34:5
65,35:4
65,36:4
65,37:6
65,38:6
65,39:6
65,40:3
65,41:3
65,42:3
65,43:3
65,44:3
65,45:3
65,46:3
65,47:1
65,48:6
65,49:1
65,50:1
65,51:1
65,58:4
65,59:6
65,60:1
65,61:3
65,64:4
65,66:3
65,69:7
65,70:7
65,72:7
65,80:7
66,19:2
66,22:2
66,23:2
66,24:2
66,25:2
66,26:1
66,27:2
66,28:1
66,29:1
66,31:1
66,32:1
66,33:2
66,34:2
66,35:1
66,36:1
66,37:3
66,38:3
66,39:3
66,47:2
66,48:3
66,49:2
66,50:2
66,51:2
66,52:3
66,53:3
66,58:1
66,59:3
66,60:2
66,62:3
66,63:3
66,64:1
66,65:3
66,67:3
66,68:3
66,69:4
66,70:4
66,71:3
66,72:4
66,80:4
67,19:1
67,22:1
67,23:1
67,24:1
67,25:1
67,26:4
67,27:1
67,28:4
67,29:2
67,31:2
67,32:2
67,33:5
67,34:5
67,35:4
67,36:4
67,37:6
67,38:6
67,39:6
67,40:3
67,41:3
67,42:3
67,43:3
67,44:3
67,45:3
67,46:3
67,47:1
67,48:6
67,49:1
67,50:1
67,51:1
67,69:7
67,70:7
67,72:7
67,73:7
67,80:7
68,16:2
68,21:1
68,30:2
68,48:6
68,58:4
68,59:6
68,60:1
68,61:3
68,64:4
68,66:3
68,69:7
68,70:7
68,72:7
68,73:7
68,74:7
68,75:6
68,76:6
68,77:6
69,16:5
69,21:6
69,30:5
69,48:1
69,54:7
69,55:7
69,56:7
69,57:7
69,58:3
69,59:1
69,60:6
69,61:4
69,62:7
69,63:7
69,64:3
69,65:7
69,66:4
69,67:7
69,68:7
69,71:7
69,75:1
69,76:1
69,77:1
70,16:5
70,21:6
70,30:5
70,48:1
70,54:7
70,55:7
70,56:7
70,57:7
70,58:3
70,59:1
70,60:6
70,61:4
70,62:7
70,63:7
70,64:3
70,65:7
70,66:4
70,67:7
70,68:7
70,71:7
70,75:1
70,76:1
70,77:1
71,16:2
71,21:1
71,30:2
71,48:6
71,58:4
71,59:6
71,60:1
71,61:3
71,64:4
71,66:3
71,69:7
71,70:7
71,72:7
71,73:7
71,80:7
72,16:5
72,21:6
72,30:5
72,48:1
72,54:7
72,55:7
72,56:7
72,57:7
72,58:3
72,59:1
72,60:6
72,61:4
72,62:7
72,63:7
72,64:3
72,65:7
72,66:4
72,67:7
72,71:7
72,75:1
72,76:1
72,77:1
72,78:1
73,48:1
73,68:7
74,48:1
74,68:7
74,75:1
74,76:1
75,68:6
75,69:1
75,70:1
75,72:1
75,80:1
76,68:6
76,69:1
76,70:1
76,72:1
76,79:7
76,80:1
76,81:7
77,68:6
77,69:1
77,70:1
77,72:1
77,80:1
78,79:7
78,80:1
79,48:7
79,76:7
79,80:8
80,16:5
80,21:6
80,30:5
80,48:1
80,54:7
80,55:7
80,56:7
80,57:7
80,58:3
80,59:1
80,60:6
80,61:4
80,62:7
80,63:7
80,64:3
80,65:7
80,66:4
80,67:7
80,71:7
80,75:1
80,76:1
80,77:1
80,78:1
80,79:8
80,81:8
81,48:7
82,48:7
82,83:4
83,48:3
83,84:4
83,85:4
84,48:7
84,83:4
84,86:4
85,48:7
85,83:4
85,86:4
86,48:3
87,48:3
88,48:3
89,48:3

<setup times backward>
5,1:3
5,2:3
5,3:3
5,4:3
5,6:3
5,8:3
5,9:5
5,13:5
5,30:3
6,9:2
7,1:3
7,2:3
7,3:3
7,4:3
7,6:3
7,8:3
7,9:5
7,30:3
8,9:2
8,13:2
8,14:2
8,15:2
8,17:2
10,1:3
10,2:3
10,3:3
10,4:3
10,6:3
10,8:3
10,9:5
10,13:5
10,30:3
11,1:3
11,2:3
11,3:3
11,4:3
11,6:3
11,8:3
11,9:5
11,30:3
12,1:3
12,2:3
12,3:3
12,4:3
12,6:3
12,8:3
12,9:5
12,30:3
16,9:2
16,13:2
16,14:2
16,15:2
16,17:2
16,26:2
16,28:2
16,33:3
16,34:3
16,35:2
16,36:2
16,37:4
16,38:4
16,39:4
16,40:1
16,41:1
16,42:1
16,43:1
16,44:1
16,45:1
16,46:1
16,48:4
16,69:5
16,70:5
16,72:5
16,80:5
18,1:1
18,2:1
18,3:1
18,4:1
18,6:1
18,8:1
18,9:3
18,13:3
18,14:3
18,15:3
18,16:1
18,17:3
18,30:1
19,1:1
19,2:1
19,3:1
19,4:1
19,6:1
19,8:1
19,9:3
19,13:3
19,14:3
19,15:3
19,16:1
19,17:3
19,28:3
19,30:1
19,58:3
19,59:5
19,61:2
19,64:3
19,66:2
20,1:1
20,2:1
20,3:1
20,4:1
20,6:1
20,8:1
20,9:3
20,13:3
20,14:3
20,15:3
20,16:1
20,17:3
20,26:3
20,30:1
21,1:1
21,2:1
21,3:1
21,4:1
21,6:1
21,8:1
21,9:3
21,13:3
21,14:3
21,15:3
21,16:1
21,17:3
21,26:3
21,28:3
21,29:1
21,30:1
21,31:1
21,32:1
21,33:4
21,34:4
21,35:3
21,36:3
21,37:5
21,38:5
21,39:5
21,40:2
21,41:2
21,42:2
21,43:2
21,44:2
21,45:2
21,46:2
21,48:5
21,69:6
21,70:6
21,72:6
21,80:6
22,1:1
22,2:1
22,3:1
22,4:1
22,6:1
22,8:1
22,9:3
22,13:3
22,14:3
22,15:3
22,16:1
22,17:3
22,28:3
22,30:1
22,58:3
22,59:5
22,61:2
22,64:3
22,66:2
23,1:1
23,2:1
23,3:1
23,4:1
23,6:1
23,8:1
23,9:3
23,13:3
23,14:3
23,15:3
23,16:1
23,17:3
23,28:3
23,30:1
23,58:3
23,59:5
23,61:2
23,64:3
23,66:2
24,1:1
24,2:1
24,3:1
24,4:1
24,6:1
24,8:1
24,9:3
24,13:3
24,14:3
24,15:3
24,16:1
24,17:3
24,28:3
24,30:1
24,58:3
24,59:5
24,61:2
24,64:3
24,66:2
25,1:1
25,2:1
25,3:1
25,4:1
25,6:1
25,8:1
25,9:3
25,13:3
25,14:3
25,15:3
25,16:1
25,17:3
25,28:3
25,30:1
25,58:3
25,59:5
25,61:2
25,64:3
25,66:2
26,33:1
26,34:1
26,59:2
27,1:1
27,2:1
27,3:1
27,4:1
27,6:1
27,8:1
27,9:3
27,13:3
27,14:3
27,15:3
27,16:1
27,17:3
27,26:3
27,28:3
27,29:1
27,30:1
27,31:1
27,32:1
27,58:3
27,59:5
27,61:2
27,64:3
27,66:2
28,59:2
29,9:2
29,13:2
29,14:2
29,15:2
29,17:2
29,26:2
29,28:2
29,58:2
29,59:4
29,61:1
29,64:2
29,66:1
30,9:2
30,13:2
30,14:2
30,15:2
30,17:2
30,26:2
30,28:2
30,33:3
30,34:3
30,35:2
30,36:2
30,37:4
30,38:4
30,39:4
30,40:1
30,41:1
30,42:1
30,43:1
30,44:1
30,45:1
30,46:1
30,48:4
30,69:5
30,70:5
30,72:5
30,80:5
31,9:2
31,13:2
31,14:2
31,15:2
31,17:2
31,26:2
31,28:2
31,58:2
31,59:4
31,61:1
31,64:2
31,66:1
32,9:2
32,13:2
32,14:2
32,15:2
32,17:2
32,26:2
32,28:2
32,58:2
32,59:4
32,61:1
32,64:2
32,66:1
33,59:1
34,59:1
35,33:1
35,34:1
35,59:2
36,33:1
36,34:1
36,37:2
36,59:2
40,9:1
40,13:1
40,14:1
40,15:1
40,17:1
40,26:1
40,28:1
40,33:2
40,34:2
40,35:1
40,36:1
40,37:3
40,38:3
40,39:3
40,48:3
40,58:1
40,59:3
40,64:1
41,9:1
41,13:1
41,14:1
41,15:1
41,17:1
41,26:1
41,28:1
41,33:2
41,34:2
41,35:1
41,36:1
41,37:3
41,38:3
41,39:3
41,48:3
41,58:1
41,59:3
41,64:1
42,9:1
42,13:1
42,14:1
42,15:1
42,17:1
42,26:1
42,28:1
42,33:2
42,34:2
42,35:1
42,36:1
42,37:3
42,38:3
42,39:3
42,48:3
42,58:1
42,59:3
42,64:1
43,9:1
43,13:1
43,14:1
43,15:1
43,17:1
43,26:1
43,28:1
43,33:2
43,34:2
43,35:1
43,36:1
43,37:3
43,38:3
43,39:3
43,58:1
43,59:3
43,64:1
44,9:1
44,13:1
44,14:1
44,15:1
44,17:1
44,26:1
44,28:1
44,33:2
44,34:2
44,35:1
44,36:1
44,37:3
44,38:3
44,39:3
44,48:3
44,58:1
44,59:3
44,64:1
45,9:1
45,13:1
45,14:1
45,15:1
45,17:1
45,26:1
45,28:1
45,33:2
45,34:2
45,35:1
45,36:1
45,37:3
45,38:3
45,39:3
45,58:1
45,59:3
45,64:1
46,9:1
46,13:1
46,14:1
46,15:1
46,17:1
46,26:1
46,28:1
46,33:2
46,34:2
46,35:1
46,36:1
46,37:3
46,38:3
46,39:3
46,58:1
46,59:3
46,64:1
47,1:1
47,2:1
47,3:1
47,4:1
47,6:1
47,8:1
47,9:3
47,13:3
47,14:3
47,15:3
47,16:1
47,17:3
47,26:3
47,28:3
47,29:1
47,30:1
47,31:1
47,32:1
47,33:4
47,34:4
47,35:3
47,36:3
47,37:5
47,38:5
47,39:5
47,40:2
47,41:2
47,42:2
47,43:2
47,44:2
47,45:2
47,46:2
47,58:3
47,59:5
47,61:2
47,64:3
47,66:2
48,69:1
48,70:1
48,72:1
48,73:1
48,74:1
48,80:1
49,1:1
49,2:1
49,3:1
49,4:1
49,6:1
49,8:1
49,9:3
49,13:3
49,14:3
49,15:3
49,16:1
49,17:3
49,26:3
49,28:3
49,29:1
49,30:1
49,31:1
49,32:1
49,33:4
49,34:4
49,35:3
49,36:3
49,37:5
49,38:5
49,39:5
49,40:2
49,41:2
49,42:2
49,43:2
49,44:2
49,45:2
49,46:2
49,48:5
49,58:3
49,59:5
49,61:2
49,64:3
49,66:2
50,1:1
50,2:1
50,3:1
50,4:1
50,6:1
50,8:1
50,9:3
50,13:3
50,14:3
50,15:3
50,16:1
50,17:3
50,26:3
50,28:3
50,29:1
50,30:1
50,31:1
50,32:1
50,33:4
50,34:4
50,35:3
50,36:3
50,37:5
50,38:5
50,39:5
50,40:2
50,41:2
50,42:2
50,43:2
50,44:2
50,45:2
50,46:2
50,48:5
50,58:3
50,59:5
50,61:2
50,64:3
50,66:2
51,1:1
51,2:1
51,3:1
51,4:1
51,6:1
51,8:1
51,9:3
51,13:3
51,14:3
51,15:3
51,16:1
51,17:3
51,26:3
51,28:3
51,29:1
51,30:1
51,31:1
51,32:1
51,33:4
51,34:4
51,35:3
51,36:3
51,37:5
51,38:5
51,39:5
51,40:2
51,41:2
51,42:2
51,43:2
51,44:2
51,45:2
51,46:2
51,48:5
51,58:3
51,59:5
51,61:2
51,64:3
51,66:2
52,1:2
52,2:2
52,3:2
52,4:2
52,6:2
52,8:2
52,9:4
52,13:4
52,14:4
52,15:4
52,16:2
52,17:4
52,18:1
52,19:1
52,20:1
52,21:1
52,22:1
52,23:1
52,24:1
52,25:1
52,26:4
52,27:1
52,28:4
52,29:2
52,30:2
52,31:2
52,32:2
52,33:5
52,34:5
52,35:4
52,36:4
52,37:6
52,38:6
52,39:6
52,40:3
52,41:3
52,42:3
52,43:3
52,44:3
52,45:3
52,46:3
52,47:1
52,48:6
52,49:1
52,50:1
52,51:1
52,58:4
52,59:6
52,60:1
52,61:3
52,64:4
52,66:3
53,1:2
53,2:2
53,3:2
53,4:2
53,6:2
53,8:2
53,9:4
53,13:4
53,14:4
53,15:4
53,16:2
53,17:4
53,18:1
53,19:1
53,20:1
53,21:1
53,22:1
53,23:1
53,24:1
53,25:1
53,26:4
53,27:1
53,28:4
53,29:2
53,30:2
53,31:2
53,32:2
53,33:5
53,34:5
53,35:4
53,36:4
53,37:6
53,38:6
53,39:6
53,40:3
53,41:3
53,42:3
53,43:3
53,44:3
53,45:3
53,46:3
53,47:1
53,48:6
53,49:1
53,50:1
53,51:1
53,58:4
53,59:6
53,60:1
53,61:3
53,64:4
53,66:3
54,1:2
54,2:2
54,3:2
54,4:2
54,6:2
54,8:2
54,9:4
54,13:4
54,14:4
54,15:4
54,16:2
54,17:4
54,18:1
54,19:1
54,20:1
54,21:1
54,22:1
54,23:1
54,24:1
54,25:1
54,26:4
54,27:1
54,28:4
54,29:2
54,30:2
54,31:2
54,32:2
54,33:5
54,34:5
54,35:4
54,36:4
54,37:6
54,38:6
54,39:6
54,40:3
54,41:3
54,42:3
54,43:3
54,44:3
54,45:3
54,46:3
54,47:1
54,48:6
54,49:1
54,50:1
54,51:1
54,69:7
54,70:7
54,72:7
54,80:7
55,1:2
55,2:2
55,3:2
55,4:2
55,6:2
55,8:2
55,9:4
55,13:4
55,14:4
55,15:4
55,16:2
55,17:4
55,18:1
55,19:1
55,20:1
55,21:1
55,22:1
55,23:1
55,24:1
55,25:1
55,26:4
55,27:1
55,28:4
55,29:2
55,30:2
55,31:2
55,32:2
55,33:5
55,34:5
55,35:4
55,36:4
55,37:6
55,38:6
55,39:6
55,40:3
55,41:3
55,42:3
55,43:3
55,44:3
55,45:3
55,46:3
55,47:1
55,48:6
55,49:1
55,50:1
55,51:1
55,69:7
55,70:7
55,72:7
55,80:7
56,1:2
56,2:2
56,3:2
56,4:2
56,6:2
56,8:2
56,9:4
56,13:4
56,14:4
56,15:4
56,16:2
56,17:4
56,18:1
56,19:1
56,20:1
56,21:1
56,22:1
56,23:1
56,24:1
56,25:1
56,26:4
56,27:1
56,28:4
56,29:2
56,30:2
56,31:2
56,32:2
56,33:5
56,34:5
56,35:4
56,36:4
56,37:6
56,38:6
56,39:6
56,40:3
56,41:3
56,42:3
56,43:3
56,44:3
56,45:3
56,46:3
56,47:1
56,48:6
56,49:1
56,50:1
56,51:1
56,69:7
56,70:7
56,72:7
56,80:7
57,1:2
57,2:2
57,3:2
57,4:2
57,6:2
57,8:2
57,9:4
57,13:4
57,14:4
57,15:4
57,16:2
57,17:4
57,18:1
57,19:1
57,20:1
57,21:1
57,22:1
57,23:1
57,24:1
57,25:1
57,26:4
57,27:1
57,28:4
57,29:2
57,30:2
57,31:2
57,32:2
57,33:5
57,34:5
57,35:4
57,36:4
57,37:6
57,38:6
57,39:6
57,40:3
57,41:3
57,42:3
57,43:3
57,44:3
57,45:3
57,46:3
57,47:1
57,48:6
57,49:1
57,50:1
57,51:1
57,69:7
57,70:7
57,72:7
57,80:7
58,33:1
58,34:1
58,37:2
58,38:2
58,39:2
58,48:2
58,59:2
58,69:3
58,70:3
58,72:3
58,80:3
59,69:1
59,70:1
59,72:1
59,80:1
60,1:1
60,2:1
60,3:1
60,4:1
60,6:1
60,8:1
60,9:3
60,13:3
60,14:3
60,15:3
60,16:1
60,17:3
60,26:3
60,28:3
60,29:1
60,30:1
60,31:1
60,32:1
60,33:4
60,34:4
60,35:3
60,36:3
60,37:5
60,38:5
60,39:5
60,40:2
60,41:2
60,42:2
60,43:2
60,44:2
60,45:2
60,46:2
60,48:5
60,58:3
60,59:5
60,61:2
60,64:3
60,66:2
60,69:6
60,70:6
60,72:6
60,80:6
61,9:1
61,13:1
61,14:1
61,15:1
61,17:1
61,26:1
61,28:1
61,33:2
61,34:2
61,35:1
61,36:1
61,37:3
61,38:3
61,39:3
61,48:3
61,58:1
61,59:3
61,64:1
61,69:4
61,70:4
61,72:4
61,80:4
62,1:2
62,2:2
62,3:2
62,4:2
62,6:2
62,8:2
62,9:4
62,13:4
62,14:4
62,15:4
62,16:2
62,17:4
62,18:1
62,19:1
62,20:1
62,21:1
62,22:1
62,23:1
62,24:1
62,25:1
62,26:4
62,27:1
62,28:4
62,29:2
62,30:2
62,31:2
62,32:2
62,33:5
62,34:5
62,35:4
62,36:4
62,37:6
62,38:6
62,39:6
62,40:3
62,41:3
62,42:3
62,43:3
62,44:3
62,45:3
62,46:3
62,47:1
62,48:6
62,49:1
62,50:1
62,51:1
62,58:4
62,59:6
62,60:1
62,61:3
62,64:4
62,66:3
62,69:7
62,70:7
62,72:7
62,80:7
63,1:2
63,2:2
63,3:2
63,4:2
63,6:2
63,8:2
63,9:4
63,13:4
63,14:4
63,15:4
63,16:2
63,17:4
63,18:1
63,19:1
63,20:1
63,21:1
63,22:1
63,23:1
63,24:1
63,25:1
63,26:4
63,27:1
63,28:4
63,29:2
63,30:2
63,31:2
63,32:2
63,33:5
63,34:5
63,35:4
63,36:4
63,37:6
63,38:6
63,39:6
63,40:3
63,41:3
63,42:3
63,43:3
63,44:3
63,45:3
63,46:3
63,47:1
63,48:6
63,49:1
63,50:1
63,51:1
63,58:4
63,59:6
63,60:1
63,61:3
63,64:4
63,66:3
63,69:7
63,70:7
63,72:7
63,80:7
64,33:1
64,34:1
64,37:2
64,38:2
64,39:2
64,48:2
64,59:2
64,69:3
64,70:3
64,72:3
64,80:3
65,1:2
65,2:2
65,3:2
65,4:2
65,6:2
65,8:2
65,9:4
65,13:4
65,14:4
65,15:4
65,16:2
65,17:4
65,18:1
65,19:1
65,20:1
65,21:1
65,22:1
65,23:1
65,24:1
65,25:1
65,26:4
65,27:1
65,28:4
65,29:2
65,30:2
65,31:2
65,32:2
65,33:5
65,34:5
65,35:4
65,36:4
65,37:6
65,38:6
65,39:6
65,40:3
65,41:3
65,42:3
65,43:3
65,44:3
65,45:3
65,46:3
65,47:1
65,48:6
65,49:1
65,50:1
65,51:1
65,58:4
65,59:6
65,60:1
65,61:3
65,64:4
65,66:3
65,69:7
65,70:7
65,72:7
65,80:7
66,9:1
66,13:1
66,14:1
66,15:1
66,17:1
66,26:1
66,28:1
66,33:2
66,34:2
66,35:1
66,36:1
66,37:3
66,38:3
66,39:3
66,48:3
66,58:1
66,59:3
66,64:1
66,69:4
66,70:4
66,72:4
66,80:4
67,1:2
67,2:2
67,3:2
67,4:2
67,6:2
67,8:2
67,9:4
67,13:4
67,14:4
67,15:4
67,16:2
67,17:4
67,18:1
67,19:1
67,20:1
67,21:1
67,22:1
67,23:1
67,24:1
67,25:1
67,26:4
67,27:1
67,28:4
67,29:2
67,30:2
67,31:2
67,32:2
67,33:5
67,34:5
67,35:4
67,36:4
67,37:6
67,38:6
67,39:6
67,40:3
67,41:3
67,42:3
67,43:3
67,44:3
67,45:3
67,46:3
67,47:1
67,48:6
67,49:1
67,50:1
67,51:1
67,58:4
67,59:6
67,60:1
67,61:3
67,64:4
67,66:3
67,69:7
67,70:7
67,72:7
67,80:7
68,1:2
68,2:2
68,3:2
68,4:2
68,6:2
68,8:2
68,9:4
68,13:4
68,14:4
68,15:4
68,16:2
68,17:4
68,18:1
68,19:1
68,20:1
68,21:1
68,22:1
68,23:1
68,24:1
68,25:1
68,26:4
68,27:1
68,28:4
68,29:2
68,30:2
68,31:2
68,32:2
68,33:5
68,34:5
68,35:4
68,36:4
68,37:6
68,38:6
68,39:6
68,40:3
68,41:3
68,42:3
68,43:3
68,44:3
68,45:3
68,46:3
68,47:1
68,48:6
68,49:1
68,50:1
68,51:1
68,58:4
68,59:6
68,60:1
68,61:3
68,64:4
68,66:3
68,69:7
68,70:7
68,73:7
68,74:7
68,75:6
68,76:6
68,77:6
71,1:2
71,2:2
71,3:2
71,4:2
71,6:2
71,8:2
71,9:4
71,13:4
71,14:4
71,15:4
71,16:2
71,17:4
71,18:1
71,19:1
71,20:1
71,21:1
71,22:1
71,23:1
71,24:1
71,25:1
71,26:4
71,27:1
71,28:4
71,29:2
71,30:2
71,31:2
71,32:2
71,33:5
71,34:5
71,35:4
71,36:4
71,37:6
71,38:6
71,39:6
71,40:3
71,41:3
71,42:3
71,43:3
71,44:3
71,45:3
71,46:3
71,47:1
71,48:6
71,49:1
71,50:1
71,51:1
71,58:4
71,59:6
71,60:1
71,61:3
71,64:4
71,66:3
71,69:7
71,70:7
71,72:7
71,80:7
75,69:1
75,70:1
75,72:1
75,73:1
75,74:1
75,80:1
76,69:1
76,70:1
76,72:1
76,73:1
76,74:1
76,80:1
77,69:1
77,70:1
77,72:1
77,73:1
77,74:1
77,80:1
78,69:1
78,70:1
78,72:1
78,73:1
78,74:1
78,80:1
79,1:3
79,2:3
79,3:3
79,4:3
79,6:3
79,8:3
79,9:5
79,13:5
79,14:5
79,15:5
79,16:3
79,17:5
79,18:2
79,19:2
79,20:2
79,21:2
79,22:2
79,23:2
79,24:2
79,25:2
79,26:5
79,27:2
79,28:5
79,29:3
79,30:3
79,31:3
79,32:3
79,33:6
79,34:6
79,35:5
79,36:5
79,37:7
79,38:7
79,39:7
79,40:4
79,41:4
79,42:4
79,43:4
79,44:4
79,45:4
79,46:4
79,47:2
79,48:7
79,49:2
79,50:2
79,51:2
79,52:1
79,53:1
79,54:1
79,55:1
79,56:1
79,57:1
79,58:5
79,59:7
79,60:2
79,61:4
79,62:1
79,63:1
79,64:5
79,65:1
79,66:4
79,67:1
79,68:1
79,69:8
79,70:8
79,71:1
79,72:8
79,73:8
79,74:8
79,75:7
79,76:7
79,77:7
79,78:7
79,80:8
81,1:3
81,2:3
81,3:3
81,4:3
81,6:3
81,8:3
81,9:5
81,13:5
81,14:5
81,15:5
81,16:3
81,17:5
81,18:2
81,19:2
81,20:2
81,21:2
81,22:2
81,23:2
81,24:2
81,25:2
81,26:5
81,27:2
81,28:5
81,29:3
81,30:3
81,31:3
81,32:3
81,33:6
81,34:6
81,35:5
81,36:5
81,37:7
81,38:7
81,39:7
81,40:4
81,41:4
81,42:4
81,43:4
81,44:4
81,45:4
81,46:4
81,47:2
81,48:7
81,49:2
81,50:2
81,51:2
81,52:1
81,53:1
81,54:1
81,55:1
81,56:1
81,57:1
81,58:5
81,59:7
81,60:2
81,61:4
81,62:1
81,63:1
81,64:5
81,65:1
81,66:4
81,67:1
81,68:1
81,69:8
81,70:8
81,71:1
81,72:8
81,73:8
81,74:8
81,75:7
81,76:7
81,77:7
81,78:7
81,80:8
82,1:3
82,2:3
82,3:3
82,4:3
82,6:3
82,8:3
82,9:5
82,13:5
82,14:5
82,15:5
82,16:3
82,17:5
82,18:2
82,19:2
82,20:2
82,21:2
82,22:2
82,23:2
82,24:2
82,25:2
82,26:5
82,27:2
82,28:5
82,29:3
82,30:3
82,31:3
82,32:3
82,33:6
82,34:6
82,35:5
82,36:5
82,37:7
82,38:7
82,39:7
82,40:4
82,41:4
82,42:4
82,43:4
82,44:4
82,45:4
82,46:4
82,47:2
82,48:7
82,49:2
82,50:2
82,51:2
82,52:1
82,53:1
82,54:1
82,55:1
82,56:1
82,57:1
82,58:5
82,59:7
82,60:2
82,61:4
82,62:1
82,63:1
82,64:5
82,65:1
82,66:4
82,67:1
82,68:1
82,69:8
82,70:8
82,71:1
82,72:8
82,73:8
82,74:8
82,75:7
82,76:7
82,77:7
82,78:7
82,80:8
83,9:1
83,13:1
83,14:1
83,15:1
83,17:1
83,26:1
83,28:1
83,33:2
83,34:2
83,35:1
83,36:1
83,37:3
83,38:3
83,39:3
83,48:3
83,58:1
83,59:3
83,64:1
83,69:4
83,70:4
83,72:4
83,73:4
83,74:4
83,75:3
83,76:3
83,77:3
83,78:3
83,80:4
84,1:3
84,2:3
84,3:3
84,4:3
84,6:3
84,8:3
84,9:5
84,13:5
84,14:5
84,15:5
84,16:3
84,17:5
84,18:2
84,19:2
84,20:2
84,21:2
84,22:2
84,23:2
84,24:2
84,25:2
84,26:5
84,27:2
84,28:5
84,29:3
84,30:3
84,31:3
84,32:3
84,33:6
84,34:6
84,35:5
84,36:5
84,37:7
84,38:7
84,39:7
84,40:4
84,41:4
84,42:4
84,43:4
84,44:4
84,45:4
84,46:4
84,47:2
84,48:7
84,49:2
84,50:2
84,51:2
84,52:1
84,53:1
84,54:1
84,55:1
84,56:1
84,57:1
84,58:5
84,59:7
84,60:2
84,61:4
84,62:1
84,63:1
84,64:5
84,65:1
84,66:4
84,67:1
84,68:1
84,69:8
84,70:8
84,71:1
84,72:8
84,73:8
84,74:8
84,75:7
84,76:7
84,77:7
84,78:7
84,80:8
84,83:4
85,1:3
85,2:3
85,3:3
85,4:3
85,6:3
85,8:3
85,9:5
85,13:5
85,14:5
85,15:5
85,16:3
85,17:5
85,18:2
85,19:2
85,20:2
85,21:2
85,22:2
85,23:2
85,24:2
85,25:2
85,26:5
85,27:2
85,28:5
85,29:3
85,30:3
85,31:3
85,32:3
85,33:6
85,34:6
85,35:5
85,36:5
85,37:7
85,38:7
85,39:7
85,40:4
85,41:4
85,42:4
85,43:4
85,44:4
85,45:4
85,46:4
85,47:2
85,48:7
85,49:2
85,50:2
85,51:2
85,52:1
85,53:1
85,54:1
85,55:1
85,56:1
85,57:1
85,58:5
85,59:7
85,60:2
85,61:4
85,62:1
85,63:1
85,64:5
85,65:1
85,66:4
85,67:1
85,68:1
85,69:8
85,70:8
85,71:1
85,72:8
85,73:8
85,74:8
85,75:7
85,76:7
85,77:7
85,78:7
85,80:8
85,83:4
86,9:1
86,13:1
86,14:1
86,15:1
86,17:1
86,26:1
86,28:1
86,33:2
86,34:2
86,35:1
86,36:1
86,37:3
86,38:3
86,39:3
86,48:3
86,58:1
86,59:3
86,64:1
86,69:4
86,70:4
86,72:4
86,73:4
86,74:4
86,75:3
86,76:3
86,77:3
86,78:3
86,80:4
87,9:1
87,13:1
87,14:1
87,15:1
87,17:1
87,26:1
87,28:1
87,33:2
87,34:2
87,35:1
87,36:1
87,37:3
87,38:3
87,39:3
87,48:3
87,58:1
87,59:3
87,64:1
87,69:4
87,70:4
87,72:4
87,73:4
87,74:4
87,75:3
87,76:3
87,77:3
87,78:3
87,80:4
88,9:1
88,13:1
88,14:1
88,15:1
88,17:1
88,26:1
88,28:1
88,33:2
88,34:2
88,35:1
88,36:1
88,37:3
88,38:3
88,39:3
88,48:3
88,58:1
88,59:3
88,64:1
88,69:4
88,70:4
88,72:4
88,73:4
88,74:4
88,75:3
88,76:3
88,77:3
88,78:3
88,80:4
89,9:1
89,13:1
89,14:1
89,15:1
89,17:1
89,26:1
89,28:1
89,33:2
89,34:2
89,35:1
89,36:1
89,37:3
89,38:3
89,39:3
89,48:3
89,58:1
89,59:3
89,64:1
89,69:4
89,70:4
89,72:4
89,73:4
89,74:4
89,75:3
89,76:3
89,77:3
89,78:3
89,80:4

<end>

<optimal SALBP-1 value>
18


<rand seed>
467321153

